; benchmark generated from python API
(set-info :status unknown)
(declare-fun cell_1_1 () Int)
(declare-fun cell_1_3 () Int)
(declare-fun cell_2_6 () Int)
(declare-fun cell_2_8 () Int)
(declare-fun cell_3_4 () Int)
(declare-fun cell_3_8 () Int)
(declare-fun cell_4_6 () Int)
(declare-fun cell_4_9 () Int)
(declare-fun cell_5_1 () Int)
(declare-fun cell_5_9 () Int)
(declare-fun cell_6_3 () Int)
(declare-fun cell_7_5 () Int)
(declare-fun cell_8_2 () Int)
(declare-fun cell_9_7 () Int)
(declare-fun cell_2_1 () Int)
(declare-fun cell_3_1 () Int)
(declare-fun cell_4_1 () Int)
(declare-fun cell_6_1 () Int)
(declare-fun cell_7_1 () Int)
(declare-fun cell_8_1 () Int)
(declare-fun cell_9_1 () Int)
(declare-fun cell_1_2 () Int)
(declare-fun cell_2_2 () Int)
(declare-fun cell_3_2 () Int)
(declare-fun cell_4_2 () Int)
(declare-fun cell_5_2 () Int)
(declare-fun cell_6_2 () Int)
(declare-fun cell_7_2 () Int)
(declare-fun cell_9_2 () Int)
(declare-fun cell_2_3 () Int)
(declare-fun cell_3_3 () Int)
(declare-fun cell_4_3 () Int)
(declare-fun cell_5_3 () Int)
(declare-fun cell_7_3 () Int)
(declare-fun cell_8_3 () Int)
(declare-fun cell_9_3 () Int)
(declare-fun cell_1_4 () Int)
(declare-fun cell_2_4 () Int)
(declare-fun cell_4_4 () Int)
(declare-fun cell_5_4 () Int)
(declare-fun cell_6_4 () Int)
(declare-fun cell_7_4 () Int)
(declare-fun cell_8_4 () Int)
(declare-fun cell_9_4 () Int)
(declare-fun cell_1_5 () Int)
(declare-fun cell_2_5 () Int)
(declare-fun cell_3_5 () Int)
(declare-fun cell_4_5 () Int)
(declare-fun cell_5_5 () Int)
(declare-fun cell_6_5 () Int)
(declare-fun cell_8_5 () Int)
(declare-fun cell_9_5 () Int)
(declare-fun cell_1_6 () Int)
(declare-fun cell_3_6 () Int)
(declare-fun cell_5_6 () Int)
(declare-fun cell_6_6 () Int)
(declare-fun cell_7_6 () Int)
(declare-fun cell_8_6 () Int)
(declare-fun cell_9_6 () Int)
(declare-fun cell_1_7 () Int)
(declare-fun cell_2_7 () Int)
(declare-fun cell_3_7 () Int)
(declare-fun cell_4_7 () Int)
(declare-fun cell_5_7 () Int)
(declare-fun cell_6_7 () Int)
(declare-fun cell_7_7 () Int)
(declare-fun cell_8_7 () Int)
(declare-fun cell_1_8 () Int)
(declare-fun cell_4_8 () Int)
(declare-fun cell_5_8 () Int)
(declare-fun cell_6_8 () Int)
(declare-fun cell_7_8 () Int)
(declare-fun cell_8_8 () Int)
(declare-fun cell_9_8 () Int)
(declare-fun cell_1_9 () Int)
(declare-fun cell_2_9 () Int)
(declare-fun cell_3_9 () Int)
(declare-fun cell_6_9 () Int)
(declare-fun cell_7_9 () Int)
(declare-fun cell_8_9 () Int)
(declare-fun cell_9_9 () Int)
(assert
 (= cell_1_1 1))
(assert
 (= cell_1_3 2))
(assert
 (= cell_2_6 2))
(assert
 (= cell_2_8 1))
(assert
 (= cell_3_4 1))
(assert
 (= cell_3_8 2))
(assert
 (= cell_4_6 1))
(assert
 (= cell_4_9 2))
(assert
 (= cell_5_1 2))
(assert
 (= cell_5_9 1))
(assert
 (= cell_6_3 1))
(assert
 (= cell_7_5 1))
(assert
 (= cell_8_2 1))
(assert
 (= cell_9_7 1))
(assert
 (let (($x2234 (= cell_1_1 1)))
 (or $x2234 (= cell_1_1 2) (= cell_1_1 3) (= cell_1_1 4) (= cell_1_1 5) (= cell_1_1 6) (= cell_1_1 7) (= cell_1_1 8) (= cell_1_1 9))))
(assert
 (let (($x9676 (= cell_2_1 9)))
 (let (($x4895 (= cell_2_1 8)))
 (let (($x7533 (= cell_2_1 7)))
 (let (($x9699 (= cell_2_1 6)))
 (let (($x8004 (= cell_2_1 5)))
 (let (($x7436 (= cell_2_1 4)))
 (let (($x5631 (= cell_2_1 3)))
 (let (($x1645 (= cell_2_1 2)))
 (let (($x900 (= cell_2_1 1)))
 (or $x900 $x1645 $x5631 $x7436 $x8004 $x9699 $x7533 $x4895 $x9676)))))))))))
(assert
 (let (($x10210 (= cell_3_1 9)))
 (let (($x8082 (= cell_3_1 8)))
 (let (($x1356 (= cell_3_1 7)))
 (let (($x9518 (= cell_3_1 6)))
 (let (($x5278 (= cell_3_1 5)))
 (let (($x9814 (= cell_3_1 4)))
 (let (($x10149 (= cell_3_1 3)))
 (let (($x5641 (= cell_3_1 2)))
 (let (($x8768 (= cell_3_1 1)))
 (or $x8768 $x5641 $x10149 $x9814 $x5278 $x9518 $x1356 $x8082 $x10210)))))))))))
(assert
 (let (($x6102 (= cell_4_1 9)))
 (let (($x4452 (= cell_4_1 8)))
 (let (($x9928 (= cell_4_1 7)))
 (let (($x1208 (= cell_4_1 6)))
 (let (($x8653 (= cell_4_1 5)))
 (let (($x10350 (= cell_4_1 4)))
 (let (($x109 (= cell_4_1 3)))
 (let (($x1655 (= cell_4_1 2)))
 (let (($x87 (= cell_4_1 1)))
 (or $x87 $x1655 $x109 $x10350 $x8653 $x1208 $x9928 $x4452 $x6102)))))))))))
(assert
 (let (($x136 (= cell_5_1 2)))
 (or (= cell_5_1 1) $x136 (= cell_5_1 3) (= cell_5_1 4) (= cell_5_1 5) (= cell_5_1 6) (= cell_5_1 7) (= cell_5_1 8) (= cell_5_1 9))))
(assert
 (let (($x9373 (= cell_6_1 9)))
 (let (($x8383 (= cell_6_1 8)))
 (let (($x7760 (= cell_6_1 7)))
 (let (($x5125 (= cell_6_1 6)))
 (let (($x7807 (= cell_6_1 5)))
 (let (($x8863 (= cell_6_1 4)))
 (let (($x896 (= cell_6_1 3)))
 (let (($x1301 (= cell_6_1 2)))
 (let (($x8297 (= cell_6_1 1)))
 (or $x8297 $x1301 $x896 $x8863 $x7807 $x5125 $x7760 $x8383 $x9373)))))))))))
(assert
 (let (($x2510 (= cell_7_1 9)))
 (let (($x3951 (= cell_7_1 8)))
 (let (($x8243 (= cell_7_1 7)))
 (let (($x4476 (= cell_7_1 6)))
 (let (($x4982 (= cell_7_1 5)))
 (let (($x6328 (= cell_7_1 4)))
 (let (($x5902 (= cell_7_1 3)))
 (let (($x3448 (= cell_7_1 2)))
 (let (($x2626 (= cell_7_1 1)))
 (or $x2626 $x3448 $x5902 $x6328 $x4982 $x4476 $x8243 $x3951 $x2510)))))))))))
(assert
 (let (($x8015 (= cell_8_1 9)))
 (let (($x5335 (= cell_8_1 8)))
 (let (($x9585 (= cell_8_1 7)))
 (let (($x8034 (= cell_8_1 6)))
 (let (($x4225 (= cell_8_1 5)))
 (let (($x74 (= cell_8_1 4)))
 (let (($x5765 (= cell_8_1 3)))
 (let (($x1730 (= cell_8_1 2)))
 (let (($x5549 (= cell_8_1 1)))
 (or $x5549 $x1730 $x5765 $x74 $x4225 $x8034 $x9585 $x5335 $x8015)))))))))))
(assert
 (let (($x1551 (= cell_9_1 9)))
 (let (($x7389 (= cell_9_1 8)))
 (let (($x8741 (= cell_9_1 7)))
 (let (($x7740 (= cell_9_1 6)))
 (let (($x712 (= cell_9_1 5)))
 (let (($x6184 (= cell_9_1 4)))
 (let (($x7511 (= cell_9_1 3)))
 (let (($x6721 (= cell_9_1 2)))
 (let (($x6230 (= cell_9_1 1)))
 (or $x6230 $x6721 $x7511 $x6184 $x712 $x7740 $x8741 $x7389 $x1551)))))))))))
(assert
 (let (($x6499 (= cell_1_2 9)))
 (let (($x6788 (= cell_1_2 8)))
 (let (($x8417 (= cell_1_2 7)))
 (let (($x3496 (= cell_1_2 6)))
 (let (($x3976 (= cell_1_2 5)))
 (let (($x88 (= cell_1_2 4)))
 (let (($x7933 (= cell_1_2 3)))
 (let (($x6429 (= cell_1_2 2)))
 (let (($x4349 (= cell_1_2 1)))
 (or $x4349 $x6429 $x7933 $x88 $x3976 $x3496 $x8417 $x6788 $x6499)))))))))))
(assert
 (let (($x5579 (= cell_2_2 9)))
 (let (($x24 (= cell_2_2 8)))
 (let (($x4129 (= cell_2_2 7)))
 (let (($x5473 (= cell_2_2 6)))
 (let (($x264 (= cell_2_2 5)))
 (let (($x5842 (= cell_2_2 4)))
 (let (($x2716 (= cell_2_2 3)))
 (let (($x4075 (= cell_2_2 2)))
 (let (($x5838 (= cell_2_2 1)))
 (or $x5838 $x4075 $x2716 $x5842 $x264 $x5473 $x4129 $x24 $x5579)))))))))))
(assert
 (let (($x3948 (= cell_3_2 9)))
 (let (($x1440 (= cell_3_2 8)))
 (let (($x10052 (= cell_3_2 7)))
 (let (($x2500 (= cell_3_2 6)))
 (let (($x342 (= cell_3_2 5)))
 (let (($x2114 (= cell_3_2 4)))
 (let (($x5859 (= cell_3_2 3)))
 (let (($x5922 (= cell_3_2 2)))
 (let (($x2711 (= cell_3_2 1)))
 (or $x2711 $x5922 $x5859 $x2114 $x342 $x2500 $x10052 $x1440 $x3948)))))))))))
(assert
 (let (($x3090 (= cell_4_2 9)))
 (let (($x10299 (= cell_4_2 8)))
 (let (($x180 (= cell_4_2 7)))
 (let (($x945 (= cell_4_2 6)))
 (let (($x7319 (= cell_4_2 5)))
 (let (($x4321 (= cell_4_2 4)))
 (let (($x8623 (= cell_4_2 3)))
 (let (($x2347 (= cell_4_2 2)))
 (let (($x6864 (= cell_4_2 1)))
 (or $x6864 $x2347 $x8623 $x4321 $x7319 $x945 $x180 $x10299 $x3090)))))))))))
(assert
 (let (($x3543 (= cell_5_2 9)))
 (let (($x6604 (= cell_5_2 8)))
 (let (($x2121 (= cell_5_2 7)))
 (let (($x8906 (= cell_5_2 6)))
 (let (($x1484 (= cell_5_2 5)))
 (let (($x4277 (= cell_5_2 4)))
 (let (($x3911 (= cell_5_2 3)))
 (let (($x3986 (= cell_5_2 2)))
 (let (($x7529 (= cell_5_2 1)))
 (or $x7529 $x3986 $x3911 $x4277 $x1484 $x8906 $x2121 $x6604 $x3543)))))))))))
(assert
 (let (($x2533 (= cell_6_2 9)))
 (let (($x2293 (= cell_6_2 8)))
 (let (($x5773 (= cell_6_2 7)))
 (let (($x4144 (= cell_6_2 6)))
 (let (($x7653 (= cell_6_2 5)))
 (let (($x8834 (= cell_6_2 4)))
 (let (($x3502 (= cell_6_2 3)))
 (let (($x9034 (= cell_6_2 2)))
 (let (($x5815 (= cell_6_2 1)))
 (or $x5815 $x9034 $x3502 $x8834 $x7653 $x4144 $x5773 $x2293 $x2533)))))))))))
(assert
 (let (($x6746 (= cell_7_2 9)))
 (let (($x3509 (= cell_7_2 8)))
 (let (($x6215 (= cell_7_2 7)))
 (let (($x7739 (= cell_7_2 6)))
 (let (($x5591 (= cell_7_2 5)))
 (let (($x3292 (= cell_7_2 4)))
 (let (($x8359 (= cell_7_2 3)))
 (let (($x7886 (= cell_7_2 2)))
 (let (($x856 (= cell_7_2 1)))
 (or $x856 $x7886 $x8359 $x3292 $x5591 $x7739 $x6215 $x3509 $x6746)))))))))))
(assert
 (let (($x1880 (= cell_8_2 1)))
 (or $x1880 (= cell_8_2 2) (= cell_8_2 3) (= cell_8_2 4) (= cell_8_2 5) (= cell_8_2 6) (= cell_8_2 7) (= cell_8_2 8) (= cell_8_2 9))))
(assert
 (let (($x4729 (= cell_9_2 9)))
 (let (($x6264 (= cell_9_2 8)))
 (let (($x6140 (= cell_9_2 7)))
 (let (($x3010 (= cell_9_2 6)))
 (let (($x5609 (= cell_9_2 5)))
 (let (($x2484 (= cell_9_2 4)))
 (let (($x4372 (= cell_9_2 3)))
 (let (($x4696 (= cell_9_2 2)))
 (let (($x2593 (= cell_9_2 1)))
 (or $x2593 $x4696 $x4372 $x2484 $x5609 $x3010 $x6140 $x6264 $x4729)))))))))))
(assert
 (let (($x6240 (= cell_1_3 2)))
 (or (= cell_1_3 1) $x6240 (= cell_1_3 3) (= cell_1_3 4) (= cell_1_3 5) (= cell_1_3 6) (= cell_1_3 7) (= cell_1_3 8) (= cell_1_3 9))))
(assert
 (let (($x5559 (= cell_2_3 9)))
 (let (($x4811 (= cell_2_3 8)))
 (let (($x5326 (= cell_2_3 7)))
 (let (($x7534 (= cell_2_3 6)))
 (let (($x7703 (= cell_2_3 5)))
 (let (($x959 (= cell_2_3 4)))
 (let (($x4526 (= cell_2_3 3)))
 (let (($x6904 (= cell_2_3 2)))
 (let (($x5942 (= cell_2_3 1)))
 (or $x5942 $x6904 $x4526 $x959 $x7703 $x7534 $x5326 $x4811 $x5559)))))))))))
(assert
 (let (($x1801 (= cell_3_3 9)))
 (let (($x7223 (= cell_3_3 8)))
 (let (($x1446 (= cell_3_3 7)))
 (let (($x8139 (= cell_3_3 6)))
 (let (($x1253 (= cell_3_3 5)))
 (let (($x8176 (= cell_3_3 4)))
 (let (($x4205 (= cell_3_3 3)))
 (let (($x7350 (= cell_3_3 2)))
 (let (($x2977 (= cell_3_3 1)))
 (or $x2977 $x7350 $x4205 $x8176 $x1253 $x8139 $x1446 $x7223 $x1801)))))))))))
(assert
 (let (($x1695 (= cell_4_3 9)))
 (let (($x3451 (= cell_4_3 8)))
 (let (($x49 (= cell_4_3 7)))
 (let (($x6655 (= cell_4_3 6)))
 (let (($x9447 (= cell_4_3 5)))
 (let (($x155 (= cell_4_3 4)))
 (let (($x5361 (= cell_4_3 3)))
 (let (($x5868 (= cell_4_3 2)))
 (let (($x6805 (= cell_4_3 1)))
 (or $x6805 $x5868 $x5361 $x155 $x9447 $x6655 $x49 $x3451 $x1695)))))))))))
(assert
 (let (($x7250 (= cell_5_3 9)))
 (let (($x9332 (= cell_5_3 8)))
 (let (($x7590 (= cell_5_3 7)))
 (let (($x10127 (= cell_5_3 6)))
 (let (($x8800 (= cell_5_3 5)))
 (let (($x5021 (= cell_5_3 4)))
 (let (($x6424 (= cell_5_3 3)))
 (let (($x9583 (= cell_5_3 2)))
 (let (($x8897 (= cell_5_3 1)))
 (or $x8897 $x9583 $x6424 $x5021 $x8800 $x10127 $x7590 $x9332 $x7250)))))))))))
(assert
 (let (($x671 (= cell_6_3 1)))
 (or $x671 (= cell_6_3 2) (= cell_6_3 3) (= cell_6_3 4) (= cell_6_3 5) (= cell_6_3 6) (= cell_6_3 7) (= cell_6_3 8) (= cell_6_3 9))))
(assert
 (let (($x2409 (= cell_7_3 9)))
 (let (($x510 (= cell_7_3 8)))
 (let (($x6859 (= cell_7_3 7)))
 (let (($x9241 (= cell_7_3 6)))
 (let (($x4897 (= cell_7_3 5)))
 (let (($x8370 (= cell_7_3 4)))
 (let (($x1681 (= cell_7_3 3)))
 (let (($x5350 (= cell_7_3 2)))
 (let (($x4976 (= cell_7_3 1)))
 (or $x4976 $x5350 $x1681 $x8370 $x4897 $x9241 $x6859 $x510 $x2409)))))))))))
(assert
 (let (($x240 (= cell_8_3 2)))
 (let (($x4414 (= cell_8_3 1)))
 (or $x4414 $x240 (= cell_8_3 3) (= cell_8_3 4) (= cell_8_3 5) (= cell_8_3 6) (= cell_8_3 7) (= cell_8_3 8) (= cell_8_3 9)))))
(assert
 (let (($x9092 (= cell_9_3 9)))
 (let (($x8008 (= cell_9_3 8)))
 (let (($x1323 (= cell_9_3 7)))
 (let (($x6042 (= cell_9_3 6)))
 (let (($x6143 (= cell_9_3 5)))
 (let (($x2620 (= cell_9_3 4)))
 (let (($x943 (= cell_9_3 3)))
 (let (($x3419 (= cell_9_3 2)))
 (let (($x6750 (= cell_9_3 1)))
 (or $x6750 $x3419 $x943 $x2620 $x6143 $x6042 $x1323 $x8008 $x9092)))))))))))
(assert
 (let (($x6928 (= cell_1_4 9)))
 (let (($x2312 (= cell_1_4 8)))
 (let (($x2782 (= cell_1_4 7)))
 (let (($x3561 (= cell_1_4 6)))
 (let (($x1166 (= cell_1_4 5)))
 (let (($x890 (= cell_1_4 4)))
 (let (($x2132 (= cell_1_4 3)))
 (let (($x9554 (= cell_1_4 2)))
 (let (($x7115 (= cell_1_4 1)))
 (or $x7115 $x9554 $x2132 $x890 $x1166 $x3561 $x2782 $x2312 $x6928)))))))))))
(assert
 (let (($x7339 (= cell_2_4 9)))
 (let (($x3695 (= cell_2_4 8)))
 (let (($x812 (= cell_2_4 7)))
 (let (($x5341 (= cell_2_4 6)))
 (let (($x5052 (= cell_2_4 5)))
 (let (($x3003 (= cell_2_4 4)))
 (let (($x7088 (= cell_2_4 3)))
 (let (($x4678 (= cell_2_4 2)))
 (let (($x5401 (= cell_2_4 1)))
 (or $x5401 $x4678 $x7088 $x3003 $x5052 $x5341 $x812 $x3695 $x7339)))))))))))
(assert
 (let (($x8166 (= cell_3_4 1)))
 (or $x8166 (= cell_3_4 2) (= cell_3_4 3) (= cell_3_4 4) (= cell_3_4 5) (= cell_3_4 6) (= cell_3_4 7) (= cell_3_4 8) (= cell_3_4 9))))
(assert
 (let (($x2879 (= cell_4_4 9)))
 (let (($x7430 (= cell_4_4 8)))
 (let (($x9352 (= cell_4_4 7)))
 (let (($x8858 (= cell_4_4 6)))
 (let (($x2724 (= cell_4_4 5)))
 (let (($x3794 (= cell_4_4 4)))
 (let (($x3145 (= cell_4_4 3)))
 (let (($x1816 (= cell_4_4 2)))
 (let (($x4467 (= cell_4_4 1)))
 (or $x4467 $x1816 $x3145 $x3794 $x2724 $x8858 $x9352 $x7430 $x2879)))))))))))
(assert
 (let (($x5469 (= cell_5_4 9)))
 (let (($x2092 (= cell_5_4 8)))
 (let (($x1966 (= cell_5_4 7)))
 (let (($x8689 (= cell_5_4 6)))
 (let (($x878 (= cell_5_4 5)))
 (let (($x1809 (= cell_5_4 4)))
 (let (($x6683 (= cell_5_4 3)))
 (let (($x5580 (= cell_5_4 2)))
 (let (($x1959 (= cell_5_4 1)))
 (or $x1959 $x5580 $x6683 $x1809 $x878 $x8689 $x1966 $x2092 $x5469)))))))))))
(assert
 (let (($x784 (= cell_6_4 2)))
 (let (($x9677 (= cell_6_4 1)))
 (or $x9677 $x784 (= cell_6_4 3) (= cell_6_4 4) (= cell_6_4 5) (= cell_6_4 6) (= cell_6_4 7) (= cell_6_4 8) (= cell_6_4 9)))))
(assert
 (let (($x159 (= cell_7_4 9)))
 (let (($x1051 (= cell_7_4 8)))
 (let (($x9845 (= cell_7_4 7)))
 (let (($x2284 (= cell_7_4 6)))
 (let (($x8179 (= cell_7_4 5)))
 (let (($x5187 (= cell_7_4 4)))
 (let (($x3173 (= cell_7_4 3)))
 (let (($x6297 (= cell_7_4 2)))
 (let (($x9163 (= cell_7_4 1)))
 (or $x9163 $x6297 $x3173 $x5187 $x8179 $x2284 $x9845 $x1051 $x159)))))))))))
(assert
 (let (($x8287 (= cell_8_4 2)))
 (let (($x5681 (= cell_8_4 1)))
 (or $x5681 $x8287 (= cell_8_4 3) (= cell_8_4 4) (= cell_8_4 5) (= cell_8_4 6) (= cell_8_4 7) (= cell_8_4 8) (= cell_8_4 9)))))
(assert
 (let (($x4380 (= cell_9_4 9)))
 (let (($x5730 (= cell_9_4 8)))
 (let (($x2949 (= cell_9_4 7)))
 (let (($x9262 (= cell_9_4 6)))
 (let (($x7483 (= cell_9_4 5)))
 (let (($x5232 (= cell_9_4 4)))
 (let (($x9985 (= cell_9_4 3)))
 (let (($x1062 (= cell_9_4 2)))
 (let (($x2561 (= cell_9_4 1)))
 (or $x2561 $x1062 $x9985 $x5232 $x7483 $x9262 $x2949 $x5730 $x4380)))))))))))
(assert
 (let (($x6267 (= cell_1_5 9)))
 (let (($x9075 (= cell_1_5 8)))
 (let (($x3989 (= cell_1_5 7)))
 (let (($x5607 (= cell_1_5 6)))
 (let (($x7078 (= cell_1_5 5)))
 (let (($x6106 (= cell_1_5 4)))
 (let (($x4131 (= cell_1_5 3)))
 (let (($x4614 (= cell_1_5 2)))
 (let (($x9328 (= cell_1_5 1)))
 (or $x9328 $x4614 $x4131 $x6106 $x7078 $x5607 $x3989 $x9075 $x6267)))))))))))
(assert
 (let (($x8688 (= cell_2_5 9)))
 (let (($x9282 (= cell_2_5 8)))
 (let (($x3819 (= cell_2_5 7)))
 (let (($x1367 (= cell_2_5 6)))
 (let (($x7866 (= cell_2_5 5)))
 (let (($x5761 (= cell_2_5 4)))
 (let (($x8544 (= cell_2_5 3)))
 (let (($x964 (= cell_2_5 2)))
 (let (($x5892 (= cell_2_5 1)))
 (or $x5892 $x964 $x8544 $x5761 $x7866 $x1367 $x3819 $x9282 $x8688)))))))))))
(assert
 (let (($x4192 (= cell_3_5 9)))
 (let (($x3201 (= cell_3_5 8)))
 (let (($x2930 (= cell_3_5 7)))
 (let (($x8494 (= cell_3_5 6)))
 (let (($x5613 (= cell_3_5 5)))
 (let (($x1646 (= cell_3_5 4)))
 (let (($x7828 (= cell_3_5 3)))
 (let (($x7494 (= cell_3_5 2)))
 (let (($x693 (= cell_3_5 1)))
 (or $x693 $x7494 $x7828 $x1646 $x5613 $x8494 $x2930 $x3201 $x4192)))))))))))
(assert
 (let (($x4076 (= cell_4_5 9)))
 (let (($x6295 (= cell_4_5 8)))
 (let (($x8030 (= cell_4_5 7)))
 (let (($x8992 (= cell_4_5 6)))
 (let (($x4602 (= cell_4_5 5)))
 (let (($x6572 (= cell_4_5 4)))
 (let (($x9040 (= cell_4_5 3)))
 (let (($x9453 (= cell_4_5 2)))
 (let (($x6509 (= cell_4_5 1)))
 (or $x6509 $x9453 $x9040 $x6572 $x4602 $x8992 $x8030 $x6295 $x4076)))))))))))
(assert
 (let (($x7245 (= cell_5_5 9)))
 (let (($x7581 (= cell_5_5 8)))
 (let (($x7652 (= cell_5_5 7)))
 (let (($x6128 (= cell_5_5 6)))
 (let (($x189 (= cell_5_5 5)))
 (let (($x2247 (= cell_5_5 4)))
 (let (($x9981 (= cell_5_5 3)))
 (let (($x2889 (= cell_5_5 2)))
 (let (($x1594 (= cell_5_5 1)))
 (or $x1594 $x2889 $x9981 $x2247 $x189 $x6128 $x7652 $x7581 $x7245)))))))))))
(assert
 (let (($x8712 (= cell_6_5 9)))
 (let (($x1758 (= cell_6_5 8)))
 (let (($x7555 (= cell_6_5 7)))
 (let (($x4178 (= cell_6_5 6)))
 (let (($x6325 (= cell_6_5 5)))
 (let (($x3420 (= cell_6_5 4)))
 (let (($x1184 (= cell_6_5 3)))
 (let (($x10001 (= cell_6_5 2)))
 (let (($x6603 (= cell_6_5 1)))
 (or $x6603 $x10001 $x1184 $x3420 $x6325 $x4178 $x7555 $x1758 $x8712)))))))))))
(assert
 (let (($x7970 (= cell_7_5 1)))
 (or $x7970 (= cell_7_5 2) (= cell_7_5 3) (= cell_7_5 4) (= cell_7_5 5) (= cell_7_5 6) (= cell_7_5 7) (= cell_7_5 8) (= cell_7_5 9))))
(assert
 (let (($x7895 (= cell_8_5 1)))
 (or $x7895 (= cell_8_5 2) (= cell_8_5 3) (= cell_8_5 4) (= cell_8_5 5) (= cell_8_5 6) (= cell_8_5 7) (= cell_8_5 8) (= cell_8_5 9))))
(assert
 (let (($x2395 (= cell_9_5 9)))
 (let (($x1146 (= cell_9_5 8)))
 (let (($x2050 (= cell_9_5 7)))
 (let (($x8526 (= cell_9_5 6)))
 (let (($x345 (= cell_9_5 5)))
 (let (($x3296 (= cell_9_5 4)))
 (let (($x2688 (= cell_9_5 3)))
 (let (($x325 (= cell_9_5 2)))
 (let (($x628 (= cell_9_5 1)))
 (or $x628 $x325 $x2688 $x3296 $x345 $x8526 $x2050 $x1146 $x2395)))))))))))
(assert
 (let (($x1349 (= cell_1_6 9)))
 (let (($x4445 (= cell_1_6 8)))
 (let (($x5833 (= cell_1_6 7)))
 (let (($x3214 (= cell_1_6 6)))
 (let (($x6793 (= cell_1_6 5)))
 (let (($x1894 (= cell_1_6 4)))
 (let (($x1499 (= cell_1_6 3)))
 (let (($x8081 (= cell_1_6 2)))
 (let (($x7813 (= cell_1_6 1)))
 (or $x7813 $x8081 $x1499 $x1894 $x6793 $x3214 $x5833 $x4445 $x1349)))))))))))
(assert
 (let (($x8114 (= cell_2_6 2)))
 (or (= cell_2_6 1) $x8114 (= cell_2_6 3) (= cell_2_6 4) (= cell_2_6 5) (= cell_2_6 6) (= cell_2_6 7) (= cell_2_6 8) (= cell_2_6 9))))
(assert
 (let (($x7342 (= cell_3_6 9)))
 (let (($x1898 (= cell_3_6 8)))
 (let (($x1213 (= cell_3_6 7)))
 (let (($x1448 (= cell_3_6 6)))
 (let (($x6421 (= cell_3_6 5)))
 (let (($x5884 (= cell_3_6 4)))
 (let (($x6061 (= cell_3_6 3)))
 (let (($x3085 (= cell_3_6 2)))
 (let (($x536 (= cell_3_6 1)))
 (or $x536 $x3085 $x6061 $x5884 $x6421 $x1448 $x1213 $x1898 $x7342)))))))))))
(assert
 (let (($x2352 (= cell_4_6 1)))
 (or $x2352 (= cell_4_6 2) (= cell_4_6 3) (= cell_4_6 4) (= cell_4_6 5) (= cell_4_6 6) (= cell_4_6 7) (= cell_4_6 8) (= cell_4_6 9))))
(assert
 (let (($x6064 (= cell_5_6 9)))
 (let (($x4857 (= cell_5_6 8)))
 (let (($x2623 (= cell_5_6 7)))
 (let (($x178 (= cell_5_6 6)))
 (let (($x5446 (= cell_5_6 5)))
 (let (($x7919 (= cell_5_6 4)))
 (let (($x4330 (= cell_5_6 3)))
 (let (($x5435 (= cell_5_6 2)))
 (let (($x2994 (= cell_5_6 1)))
 (or $x2994 $x5435 $x4330 $x7919 $x5446 $x178 $x2623 $x4857 $x6064)))))))))))
(assert
 (let (($x10144 (= cell_6_6 2)))
 (let (($x1626 (= cell_6_6 1)))
 (or $x1626 $x10144 (= cell_6_6 3) (= cell_6_6 4) (= cell_6_6 5) (= cell_6_6 6) (= cell_6_6 7) (= cell_6_6 8) (= cell_6_6 9)))))
(assert
 (let (($x9022 (= cell_7_6 2)))
 (let (($x6584 (= cell_7_6 1)))
 (or $x6584 $x9022 (= cell_7_6 3) (= cell_7_6 4) (= cell_7_6 5) (= cell_7_6 6) (= cell_7_6 7) (= cell_7_6 8) (= cell_7_6 9)))))
(assert
 (let (($x3497 (= cell_8_6 2)))
 (let (($x6521 (= cell_8_6 1)))
 (or $x6521 $x3497 (= cell_8_6 3) (= cell_8_6 4) (= cell_8_6 5) (= cell_8_6 6) (= cell_8_6 7) (= cell_8_6 8) (= cell_8_6 9)))))
(assert
 (let (($x1457 (= cell_9_6 9)))
 (let (($x5060 (= cell_9_6 8)))
 (let (($x4484 (= cell_9_6 7)))
 (let (($x3708 (= cell_9_6 6)))
 (let (($x9097 (= cell_9_6 5)))
 (let (($x40 (= cell_9_6 4)))
 (let (($x8854 (= cell_9_6 3)))
 (let (($x1294 (= cell_9_6 2)))
 (let (($x185 (= cell_9_6 1)))
 (or $x185 $x1294 $x8854 $x40 $x9097 $x3708 $x4484 $x5060 $x1457)))))))))))
(assert
 (let (($x418 (= cell_1_7 9)))
 (let (($x8519 (= cell_1_7 8)))
 (let (($x6366 (= cell_1_7 7)))
 (let (($x8215 (= cell_1_7 6)))
 (let (($x8720 (= cell_1_7 5)))
 (let (($x4647 (= cell_1_7 4)))
 (let (($x9921 (= cell_1_7 3)))
 (let (($x8367 (= cell_1_7 2)))
 (let (($x6390 (= cell_1_7 1)))
 (or $x6390 $x8367 $x9921 $x4647 $x8720 $x8215 $x6366 $x8519 $x418)))))))))))
(assert
 (let (($x7941 (= cell_2_7 9)))
 (let (($x6863 (= cell_2_7 8)))
 (let (($x8077 (= cell_2_7 7)))
 (let (($x154 (= cell_2_7 6)))
 (let (($x5814 (= cell_2_7 5)))
 (let (($x7969 (= cell_2_7 4)))
 (let (($x6282 (= cell_2_7 3)))
 (let (($x8223 (= cell_2_7 2)))
 (let (($x8826 (= cell_2_7 1)))
 (or $x8826 $x8223 $x6282 $x7969 $x5814 $x154 $x8077 $x6863 $x7941)))))))))))
(assert
 (let (($x9960 (= cell_3_7 9)))
 (let (($x9534 (= cell_3_7 8)))
 (let (($x188 (= cell_3_7 7)))
 (let (($x2774 (= cell_3_7 6)))
 (let (($x6159 (= cell_3_7 5)))
 (let (($x333 (= cell_3_7 4)))
 (let (($x3450 (= cell_3_7 3)))
 (let (($x313 (= cell_3_7 2)))
 (let (($x6602 (= cell_3_7 1)))
 (or $x6602 $x313 $x3450 $x333 $x6159 $x2774 $x188 $x9534 $x9960)))))))))))
(assert
 (let (($x1053 (= cell_4_7 9)))
 (let (($x4329 (= cell_4_7 8)))
 (let (($x6181 (= cell_4_7 7)))
 (let (($x6754 (= cell_4_7 6)))
 (let (($x1904 (= cell_4_7 5)))
 (let (($x1921 (= cell_4_7 4)))
 (let (($x1242 (= cell_4_7 3)))
 (let (($x1331 (= cell_4_7 2)))
 (let (($x3405 (= cell_4_7 1)))
 (or $x3405 $x1331 $x1242 $x1921 $x1904 $x6754 $x6181 $x4329 $x1053)))))))))))
(assert
 (let (($x938 (= cell_5_7 9)))
 (let (($x1582 (= cell_5_7 8)))
 (let (($x4972 (= cell_5_7 7)))
 (let (($x9128 (= cell_5_7 6)))
 (let (($x5541 (= cell_5_7 5)))
 (let (($x6579 (= cell_5_7 4)))
 (let (($x5030 (= cell_5_7 3)))
 (let (($x4970 (= cell_5_7 2)))
 (let (($x7893 (= cell_5_7 1)))
 (or $x7893 $x4970 $x5030 $x6579 $x5541 $x9128 $x4972 $x1582 $x938)))))))))))
(assert
 (let (($x9858 (= cell_6_7 9)))
 (let (($x8393 (= cell_6_7 8)))
 (let (($x1971 (= cell_6_7 7)))
 (let (($x9020 (= cell_6_7 6)))
 (let (($x4974 (= cell_6_7 5)))
 (let (($x5010 (= cell_6_7 4)))
 (let (($x9862 (= cell_6_7 3)))
 (let (($x8474 (= cell_6_7 2)))
 (let (($x6233 (= cell_6_7 1)))
 (or $x6233 $x8474 $x9862 $x5010 $x4974 $x9020 $x1971 $x8393 $x9858)))))))))))
(assert
 (let (($x3066 (= cell_7_7 9)))
 (let (($x4983 (= cell_7_7 8)))
 (let (($x9652 (= cell_7_7 7)))
 (let (($x1157 (= cell_7_7 6)))
 (let (($x6139 (= cell_7_7 5)))
 (let (($x7323 (= cell_7_7 4)))
 (let (($x4353 (= cell_7_7 3)))
 (let (($x6757 (= cell_7_7 2)))
 (let (($x1344 (= cell_7_7 1)))
 (or $x1344 $x6757 $x4353 $x7323 $x6139 $x1157 $x9652 $x4983 $x3066)))))))))))
(assert
 (let (($x5320 (= cell_8_7 9)))
 (let (($x5762 (= cell_8_7 8)))
 (let (($x5276 (= cell_8_7 7)))
 (let (($x9891 (= cell_8_7 6)))
 (let (($x6213 (= cell_8_7 5)))
 (let (($x9865 (= cell_8_7 4)))
 (let (($x10022 (= cell_8_7 3)))
 (let (($x7172 (= cell_8_7 2)))
 (let (($x2796 (= cell_8_7 1)))
 (or $x2796 $x7172 $x10022 $x9865 $x6213 $x9891 $x5276 $x5762 $x5320)))))))))))
(assert
 (let (($x4649 (= cell_9_7 1)))
 (or $x4649 (= cell_9_7 2) (= cell_9_7 3) (= cell_9_7 4) (= cell_9_7 5) (= cell_9_7 6) (= cell_9_7 7) (= cell_9_7 8) (= cell_9_7 9))))
(assert
 (let (($x5733 (= cell_1_8 9)))
 (let (($x6866 (= cell_1_8 8)))
 (let (($x5979 (= cell_1_8 7)))
 (let (($x1080 (= cell_1_8 6)))
 (let (($x9315 (= cell_1_8 5)))
 (let (($x7860 (= cell_1_8 4)))
 (let (($x9714 (= cell_1_8 3)))
 (let (($x7892 (= cell_1_8 2)))
 (let (($x4542 (= cell_1_8 1)))
 (or $x4542 $x7892 $x9714 $x7860 $x9315 $x1080 $x5979 $x6866 $x5733)))))))))))
(assert
 (let (($x4265 (= cell_2_8 1)))
 (or $x4265 (= cell_2_8 2) (= cell_2_8 3) (= cell_2_8 4) (= cell_2_8 5) (= cell_2_8 6) (= cell_2_8 7) (= cell_2_8 8) (= cell_2_8 9))))
(assert
 (let (($x8210 (= cell_3_8 2)))
 (or (= cell_3_8 1) $x8210 (= cell_3_8 3) (= cell_3_8 4) (= cell_3_8 5) (= cell_3_8 6) (= cell_3_8 7) (= cell_3_8 8) (= cell_3_8 9))))
(assert
 (let (($x7441 (= cell_4_8 9)))
 (let (($x4992 (= cell_4_8 8)))
 (let (($x8456 (= cell_4_8 7)))
 (let (($x4553 (= cell_4_8 6)))
 (let (($x956 (= cell_4_8 5)))
 (let (($x8941 (= cell_4_8 4)))
 (let (($x9444 (= cell_4_8 3)))
 (let (($x8953 (= cell_4_8 2)))
 (let (($x4546 (= cell_4_8 1)))
 (or $x4546 $x8953 $x9444 $x8941 $x956 $x4553 $x8456 $x4992 $x7441)))))))))))
(assert
 (let (($x6732 (= cell_5_8 9)))
 (let (($x2671 (= cell_5_8 8)))
 (let (($x8187 (= cell_5_8 7)))
 (let (($x7279 (= cell_5_8 6)))
 (let (($x9293 (= cell_5_8 5)))
 (let (($x6148 (= cell_5_8 4)))
 (let (($x5546 (= cell_5_8 3)))
 (let (($x1632 (= cell_5_8 2)))
 (let (($x3444 (= cell_5_8 1)))
 (or $x3444 $x1632 $x5546 $x6148 $x9293 $x7279 $x8187 $x2671 $x6732)))))))))))
(assert
 (let (($x222 (= cell_6_8 2)))
 (let (($x605 (= cell_6_8 1)))
 (or $x605 $x222 (= cell_6_8 3) (= cell_6_8 4) (= cell_6_8 5) (= cell_6_8 6) (= cell_6_8 7) (= cell_6_8 8) (= cell_6_8 9)))))
(assert
 (let (($x7694 (= cell_7_8 9)))
 (let (($x6155 (= cell_7_8 8)))
 (let (($x3094 (= cell_7_8 7)))
 (let (($x7070 (= cell_7_8 6)))
 (let (($x6345 (= cell_7_8 5)))
 (let (($x1357 (= cell_7_8 4)))
 (let (($x4404 (= cell_7_8 3)))
 (let (($x8985 (= cell_7_8 2)))
 (let (($x7468 (= cell_7_8 1)))
 (or $x7468 $x8985 $x4404 $x1357 $x6345 $x7070 $x3094 $x6155 $x7694)))))))))))
(assert
 (let (($x3437 (= cell_8_8 9)))
 (let (($x7129 (= cell_8_8 8)))
 (let (($x2507 (= cell_8_8 7)))
 (let (($x2843 (= cell_8_8 6)))
 (let (($x6887 (= cell_8_8 5)))
 (let (($x10211 (= cell_8_8 4)))
 (let (($x2528 (= cell_8_8 3)))
 (let (($x1913 (= cell_8_8 2)))
 (let (($x727 (= cell_8_8 1)))
 (or $x727 $x1913 $x2528 $x10211 $x6887 $x2843 $x2507 $x7129 $x3437)))))))))))
(assert
 (let (($x9171 (= cell_9_8 2)))
 (let (($x9087 (= cell_9_8 1)))
 (or $x9087 $x9171 (= cell_9_8 3) (= cell_9_8 4) (= cell_9_8 5) (= cell_9_8 6) (= cell_9_8 7) (= cell_9_8 8) (= cell_9_8 9)))))
(assert
 (let (($x5907 (= cell_1_9 9)))
 (let (($x3136 (= cell_1_9 8)))
 (let (($x9621 (= cell_1_9 7)))
 (let (($x4217 (= cell_1_9 6)))
 (let (($x9344 (= cell_1_9 5)))
 (let (($x2282 (= cell_1_9 4)))
 (let (($x9236 (= cell_1_9 3)))
 (let (($x618 (= cell_1_9 2)))
 (let (($x1829 (= cell_1_9 1)))
 (or $x1829 $x618 $x9236 $x2282 $x9344 $x4217 $x9621 $x3136 $x5907)))))))))))
(assert
 (let (($x161 (= cell_2_9 9)))
 (let (($x1429 (= cell_2_9 8)))
 (let (($x2970 (= cell_2_9 7)))
 (let (($x8299 (= cell_2_9 6)))
 (let (($x8683 (= cell_2_9 5)))
 (let (($x2662 (= cell_2_9 4)))
 (let (($x3599 (= cell_2_9 3)))
 (let (($x4266 (= cell_2_9 2)))
 (let (($x1319 (= cell_2_9 1)))
 (or $x1319 $x4266 $x3599 $x2662 $x8683 $x8299 $x2970 $x1429 $x161)))))))))))
(assert
 (let (($x2288 (= cell_3_9 9)))
 (let (($x4130 (= cell_3_9 8)))
 (let (($x1471 (= cell_3_9 7)))
 (let (($x2324 (= cell_3_9 6)))
 (let (($x4040 (= cell_3_9 5)))
 (let (($x9251 (= cell_3_9 4)))
 (let (($x1523 (= cell_3_9 3)))
 (let (($x1851 (= cell_3_9 2)))
 (let (($x273 (= cell_3_9 1)))
 (or $x273 $x1851 $x1523 $x9251 $x4040 $x2324 $x1471 $x4130 $x2288)))))))))))
(assert
 (let (($x4894 (= cell_4_9 2)))
 (or (= cell_4_9 1) $x4894 (= cell_4_9 3) (= cell_4_9 4) (= cell_4_9 5) (= cell_4_9 6) (= cell_4_9 7) (= cell_4_9 8) (= cell_4_9 9))))
(assert
 (let (($x9812 (= cell_5_9 1)))
 (or $x9812 (= cell_5_9 2) (= cell_5_9 3) (= cell_5_9 4) (= cell_5_9 5) (= cell_5_9 6) (= cell_5_9 7) (= cell_5_9 8) (= cell_5_9 9))))
(assert
 (let (($x9168 (= cell_6_9 2)))
 (let (($x3551 (= cell_6_9 1)))
 (or $x3551 $x9168 (= cell_6_9 3) (= cell_6_9 4) (= cell_6_9 5) (= cell_6_9 6) (= cell_6_9 7) (= cell_6_9 8) (= cell_6_9 9)))))
(assert
 (let (($x8312 (= cell_7_9 9)))
 (let (($x611 (= cell_7_9 8)))
 (let (($x9991 (= cell_7_9 7)))
 (let (($x1744 (= cell_7_9 6)))
 (let (($x8134 (= cell_7_9 5)))
 (let (($x2937 (= cell_7_9 4)))
 (let (($x8053 (= cell_7_9 3)))
 (let (($x6616 (= cell_7_9 2)))
 (let (($x2870 (= cell_7_9 1)))
 (or $x2870 $x6616 $x8053 $x2937 $x8134 $x1744 $x9991 $x611 $x8312)))))))))))
(assert
 (let (($x5576 (= cell_8_9 9)))
 (let (($x9834 (= cell_8_9 8)))
 (let (($x9542 (= cell_8_9 7)))
 (let (($x4986 (= cell_8_9 6)))
 (let (($x8611 (= cell_8_9 5)))
 (let (($x2602 (= cell_8_9 4)))
 (let (($x5331 (= cell_8_9 3)))
 (let (($x3769 (= cell_8_9 2)))
 (let (($x4634 (= cell_8_9 1)))
 (or $x4634 $x3769 $x5331 $x2602 $x8611 $x4986 $x9542 $x9834 $x5576)))))))))))
(assert
 (let (($x9199 (= cell_9_9 2)))
 (let (($x1827 (= cell_9_9 1)))
 (or $x1827 $x9199 (= cell_9_9 3) (= cell_9_9 4) (= cell_9_9 5) (= cell_9_9 6) (= cell_9_9 7) (= cell_9_9 8) (= cell_9_9 9)))))
(assert
 (and (distinct cell_1_1 cell_1_2 cell_1_3 cell_1_4 cell_1_5 cell_1_6 cell_1_7 cell_1_8 cell_1_9) true))
(assert
 (and (distinct cell_2_1 cell_2_2 cell_2_3 cell_2_4 cell_2_5 cell_2_6 cell_2_7 cell_2_8 cell_2_9) true))
(assert
 (and (distinct cell_3_1 cell_3_2 cell_3_3 cell_3_4 cell_3_5 cell_3_6 cell_3_7 cell_3_8 cell_3_9) true))
(assert
 (and (distinct cell_4_1 cell_4_2 cell_4_3 cell_4_4 cell_4_5 cell_4_6 cell_4_7 cell_4_8 cell_4_9) true))
(assert
 (and (distinct cell_5_1 cell_5_2 cell_5_3 cell_5_4 cell_5_5 cell_5_6 cell_5_7 cell_5_8 cell_5_9) true))
(assert
 (and (distinct cell_6_1 cell_6_2 cell_6_3 cell_6_4 cell_6_5 cell_6_6 cell_6_7 cell_6_8 cell_6_9) true))
(assert
 (and (distinct cell_7_1 cell_7_2 cell_7_3 cell_7_4 cell_7_5 cell_7_6 cell_7_7 cell_7_8 cell_7_9) true))
(assert
 (and (distinct cell_8_1 cell_8_2 cell_8_3 cell_8_4 cell_8_5 cell_8_6 cell_8_7 cell_8_8 cell_8_9) true))
(assert
 (and (distinct cell_9_1 cell_9_2 cell_9_3 cell_9_4 cell_9_5 cell_9_6 cell_9_7 cell_9_8 cell_9_9) true))
(assert
 (and (distinct cell_1_1 cell_2_1 cell_3_1 cell_4_1 cell_5_1 cell_6_1 cell_7_1 cell_8_1 cell_9_1) true))
(assert
 (and (distinct cell_1_2 cell_2_2 cell_3_2 cell_4_2 cell_5_2 cell_6_2 cell_7_2 cell_8_2 cell_9_2) true))
(assert
 (and (distinct cell_1_3 cell_2_3 cell_3_3 cell_4_3 cell_5_3 cell_6_3 cell_7_3 cell_8_3 cell_9_3) true))
(assert
 (and (distinct cell_1_4 cell_2_4 cell_3_4 cell_4_4 cell_5_4 cell_6_4 cell_7_4 cell_8_4 cell_9_4) true))
(assert
 (and (distinct cell_1_5 cell_2_5 cell_3_5 cell_4_5 cell_5_5 cell_6_5 cell_7_5 cell_8_5 cell_9_5) true))
(assert
 (and (distinct cell_1_6 cell_2_6 cell_3_6 cell_4_6 cell_5_6 cell_6_6 cell_7_6 cell_8_6 cell_9_6) true))
(assert
 (and (distinct cell_1_7 cell_2_7 cell_3_7 cell_4_7 cell_5_7 cell_6_7 cell_7_7 cell_8_7 cell_9_7) true))
(assert
 (and (distinct cell_1_8 cell_2_8 cell_3_8 cell_4_8 cell_5_8 cell_6_8 cell_7_8 cell_8_8 cell_9_8) true))
(assert
 (and (distinct cell_1_9 cell_2_9 cell_3_9 cell_4_9 cell_5_9 cell_6_9 cell_7_9 cell_8_9 cell_9_9) true))
(assert
 (and (distinct cell_1_1 cell_1_2 cell_1_3 cell_2_1 cell_2_2 cell_2_3 cell_3_1 cell_3_2 cell_3_3) true))
(assert
 (and (distinct cell_1_4 cell_1_5 cell_1_6 cell_2_4 cell_2_5 cell_2_6 cell_3_4 cell_3_5 cell_3_6) true))
(assert
 (and (distinct cell_1_7 cell_1_8 cell_1_9 cell_2_7 cell_2_8 cell_2_9 cell_3_7 cell_3_8 cell_3_9) true))
(assert
 (and (distinct cell_4_1 cell_4_2 cell_4_3 cell_5_1 cell_5_2 cell_5_3 cell_6_1 cell_6_2 cell_6_3) true))
(assert
 (and (distinct cell_4_4 cell_4_5 cell_4_6 cell_5_4 cell_5_5 cell_5_6 cell_6_4 cell_6_5 cell_6_6) true))
(assert
 (and (distinct cell_4_7 cell_4_8 cell_4_9 cell_5_7 cell_5_8 cell_5_9 cell_6_7 cell_6_8 cell_6_9) true))
(assert
 (and (distinct cell_7_1 cell_7_2 cell_7_3 cell_8_1 cell_8_2 cell_8_3 cell_9_1 cell_9_2 cell_9_3) true))
(assert
 (and (distinct cell_7_4 cell_7_5 cell_7_6 cell_8_4 cell_8_5 cell_8_6 cell_9_4 cell_9_5 cell_9_6) true))
(assert
 (and (distinct cell_7_7 cell_7_8 cell_7_9 cell_8_7 cell_8_8 cell_8_9 cell_9_7 cell_9_8 cell_9_9) true))
(assert
 (let (($x9969 (and (distinct cell_5_9 cell_6_8 cell_7_7 cell_8_6) true)))
 (let (($x8105 (and (distinct cell_2_9 cell_3_8 cell_4_7 cell_5_6 cell_6_5 cell_7_4 cell_8_3 cell_9_2) true)))
 (let (($x1940 (and (distinct cell_1_8 cell_2_7 cell_3_6 cell_4_5 cell_5_4 cell_6_3 cell_7_2 cell_8_1) true)))
 (let (($x1148 (and (distinct cell_1_5 cell_2_4 cell_3_3 cell_4_2) true)))
 (let (($x8596 (and (distinct cell_5_1 cell_6_2 cell_7_3 cell_8_4) true)))
 (let (($x8495 (and (distinct cell_2_1 cell_3_2 cell_4_3 cell_5_4 cell_6_5 cell_7_6 cell_8_7 cell_9_8) true)))
 (let (($x1019 (and (distinct cell_1_2 cell_2_3 cell_3_4 cell_4_5 cell_5_6 cell_6_7 cell_7_8 cell_8_9) true)))
 (let (($x8919 (and (distinct cell_1_5 cell_2_6 cell_3_7 cell_4_8) true)))
 (and $x8919 $x1019 $x8495 $x8596 $x1148 $x1940 $x8105 $x9969))))))))))
(assert
 (= cell_6_4 2))
(check-sat)
